40 351
1 3 4 9 13 14 16 18 19 21 22 23 24 27 28 29 30 31 35 36 38
0 6 7 8 14 18 19 20 22 25 26 27 28 32 34 37 38 39
9 21 24 26 37 38
0 7 9 10 11 13 15 18 19 21 23 24 25 33 34 35 36 39
0 5 6 9 11 12 15 17 21 28 31 34 35 36
4 6 7 10 13 14 18 24 25 26 27 28 29 30 32 33 36 38 39
1 4 5 7 8 9 10 11 12 13 14 16 18 20 21 22 23 24 25 29 31 33 34 37 38 39
1 3 5 6 8 9 10 11 12 16 27 29 34 35 36 38 39
1 6 7 10 12 16 17 18 20 21 22 25 26 27 28 30 31 32 33 34 36
0 2 3 4 6 7 10 17 18 20 21 22 23 26 28 31 34 38
3 5 6 7 8 9 11 15 18 21 24 25 26 30 32 36 37
3 4 6 7 10 13 15 16 17 21 24 26 29 31 32 33 34 35 38 39
4 6 7 8 15 16 18 20 21 23 26 31 34
0 3 5 6 11 15 17 18 21 23 32 34 35 36 38
0 1 5 6 17 24 26 27 30 31 32 37 38 39
3 4 10 11 12 13 17 18 19 22 23 25 26 27 28 30 32 33 34 37 38 39
0 6 7 8 11 12 17 18 21 24 26 28 30 32 33 34 37 38 39
4 8 9 11 13 14 15 16 18 22 24 26 28 29 30 31 33 34 37
0 1 3 5 6 8 9 10 12 13 15 16 17 21 22 23 24 25 26 32 34 36
0 1 3 15 21 22 24 29 33 34 36
1 6 8 9 12 24 28 29 34 37
0 2 3 4 6 8 9 10 11 12 13 16 18 19 22 24 29 34 35 36 37 39
0 1 6 8 9 15 17 18 19 21 23 25 27 28 32 36 37
0 3 6 9 12 13 15 18 22 24 26 28 30 31 37
0 2 3 5 6 10 11 14 16 17 18 19 20 21 23 25 26 27 28 29 31 32 39
1 3 5 6 8 10 15 18 22 24 27 29 31 33 36 37
1 2 5 8 9 10 11 12 14 15 16 17 18 23 24 29 31 34 36 39
0 1 5 7 8 14 15 22 24 25 29 33 34 35 37 39
0 1 4 5 8 9 15 16 17 20 22 23 24 31 37 39
0 5 6 7 11 17 19 20 21 24 25 26 27 32 35 37 38 39
0 5 8 10 14 15 16 17 23 32 33 34 35 37 39
0 4 6 8 9 11 12 14 17 23 24 25 26 28 34 36 37
1 5 8 10 11 13 14 15 16 18 22 24 29 30 34 35 37 38 39
3 5 6 8 11 15 16 17 19 25 27 30 34 35 38
1 3 4 6 7 8 9 11 12 13 15 16 17 18 19 20 21 26 27 30 31 32 33 36 37 38
0 3 4 7 11 13 21 27 29 30 32 33 36
0 3 4 5 7 8 10 13 18 19 21 22 25 26 31 34 35
1 2 6 10 14 15 16 17 20 21 22 23 25 27 28 29 30 31 32 34 38
0 1 2 5 6 7 9 11 13 14 15 16 29 32 33 34 37 39
1 3 5 6 7 11 14 15 16 21 24 26 27 28 29 30 32 38
